c Random generated cnf formula, satisfiable: true
p cnf 10 50
5 3 -10 0
-3 -1 6 0
1 8 3 0
-8 3 9 0
-2 -8 -7 0
7 3 -9 0
2 -10 -6 0
7 4 -3 0
8 -1 -10 0
-8 -1 7 0
1 7 3 0
4 -10 8 0
-7 2 3 0
-3 4 -9 0
2 10 -5 0
4 -8 -9 0
-9 2 -1 0
6 -10 5 0
-5 -1 2 0
5 -9 -8 0
-4 10 7 0
-3 7 -4 0
10 -6 3 0
-9 -1 8 0
-2 5 -7 0
5 7 6 0
-4 -9 5 0
-6 3 -2 0
-2 9 3 0
4 8 3 0
4 3 9 0
-2 10 3 0
-2 8 -7 0
-6 1 2 0
5 -6 -7 0
8 10 9 0
10 -7 8 0
-2 4 6 0
-5 10 3 0
5 -7 1 0
7 2 1 0
-5 7 -6 0
-3 -10 7 0
10 7 -4 0
7 8 2 0
8 -7 2 0
5 -7 6 0
-1 -5 -10 0
-6 -1 -10 0
-5 -4 -3 0
